nN = 5;
nR = 30;
nH = 2;

a = [[19, 23, 11, 24, 19, 18, 24, 19, 25, 21, 17, 22, 25, 16, 19, 21, 17, 14, 13, 22, 11, 16, 23, 14, 24, 11, 22, 17, 21, 11], [11, 18, 19, 19, 13, 15, 12, 21, 13, 19, 16, 19, 21, 21, 21, 19, 17, 20, 13, 18, 13, 15, 14, 19, 18, 12, 24, 13, 19, 21], [13, 21, 22, 22, 25, 17, 14, 18, 16, 17, 18, 20, 23, 14, 21, 17, 18, 24, 19, 11, 12, 24, 25, 23, 22, 24, 12, 19, 13, 23], [17, 15, 16, 14, 19, 20, 15, 16, 18, 23, 20, 24, 12, 19, 13, 19, 20, 20, 24, 23, 21, 13, 14, 16, 14, 18, 16, 13, 21, 15], [22, 21, 11, 11, 22, 24, 24, 15, 23, 19, 23, 12, 20, 16, 22, 22, 21, 19, 18, 18, 12, 10, 12, 11, 19, 17, 13, 23, 22, 19]];
c = [[[0, 0, 0, 0, 0, 0, 0, 0, 0, 0, 0, 0, 0, 0, 0, 0, 0, 0, 0, 0, 0, 0, 0, 0, 0, 0, 0, 0, 0, 0], [41, 37, 45, 45, 50, 34, 30, 49, 37, 46, 41, 49, 41, 49, 45, 35, 36, 48, 31, 34, 43, 40, 41, 40, 30, 40, 35, 32, 44, 41], [36, 38, 40, 45, 46, 43, 50, 47, 42, 46, 48, 35, 41, 39, 33, 45, 41, 47, 43, 33, 39, 37, 33, 47, 48, 43, 38, 36, 35, 47], [48, 47, 40, 42, 36, 35, 50, 31, 31, 38, 39, 37, 30, 32, 32, 49, 48, 36, 50, 32, 43, 45, 39, 35, 50, 31, 35, 35, 34, 41], [44, 42, 31, 39, 31, 40, 45, 40, 36, 31, 30, 40, 46, 37, 45, 38, 50, 46, 36, 43, 35, 50, 47, 46, 41, 47, 41, 42, 30, 32]], [[0, 0, 0, 0, 0, 0, 0, 0, 0, 0, 0, 0, 0, 0, 0, 0, 0, 0, 0, 0, 0, 0, 0, 0, 0, 0, 0, 0, 0, 0], [0, 0, 0, 0, 0, 0, 0, 0, 0, 0, 0, 0, 0, 0, 0, 0, 0, 0, 0, 0, 0, 0, 0, 0, 0, 0, 0, 0, 0, 0], [47, 46, 48, 47, 48, 50, 37, 37, 45, 33, 45, 33, 49, 31, 42, 32, 39, 37, 31, 34, 44, 37, 31, 36, 44, 44, 42, 37, 42, 30], [40, 47, 37, 39, 49, 36, 35, 41, 40, 40, 42, 41, 33, 38, 46, 48, 44, 50, 43, 37, 35, 39, 33, 30, 40, 50, 44, 42, 41, 37], [44, 45, 30, 34, 36, 36, 45, 32, 33, 38, 50, 49, 33, 44, 37, 46, 47, 43, 38, 36, 43, 31, 48, 32, 36, 37, 47, 37, 40, 48]], [[0, 0, 0, 0, 0, 0, 0, 0, 0, 0, 0, 0, 0, 0, 0, 0, 0, 0, 0, 0, 0, 0, 0, 0, 0, 0, 0, 0, 0, 0], [0, 0, 0, 0, 0, 0, 0, 0, 0, 0, 0, 0, 0, 0, 0, 0, 0, 0, 0, 0, 0, 0, 0, 0, 0, 0, 0, 0, 0, 0], [0, 0, 0, 0, 0, 0, 0, 0, 0, 0, 0, 0, 0, 0, 0, 0, 0, 0, 0, 0, 0, 0, 0, 0, 0, 0, 0, 0, 0, 0], [34, 30, 46, 50, 50, 41, 30, 30, 50, 33, 48, 34, 30, 43, 45, 40, 41, 43, 44, 31, 32, 40, 47, 31, 47, 41, 44, 45, 30, 45], [40, 32, 34, 48, 30, 45, 38, 37, 50, 45, 42, 40, 40, 35, 46, 49, 36, 44, 31, 43, 45, 43, 42, 35, 30, 40, 50, 35, 34, 47]], [[0, 0, 0, 0, 0, 0, 0, 0, 0, 0, 0, 0, 0, 0, 0, 0, 0, 0, 0, 0, 0, 0, 0, 0, 0, 0, 0, 0, 0, 0], [0, 0, 0, 0, 0, 0, 0, 0, 0, 0, 0, 0, 0, 0, 0, 0, 0, 0, 0, 0, 0, 0, 0, 0, 0, 0, 0, 0, 0, 0], [0, 0, 0, 0, 0, 0, 0, 0, 0, 0, 0, 0, 0, 0, 0, 0, 0, 0, 0, 0, 0, 0, 0, 0, 0, 0, 0, 0, 0, 0], [0, 0, 0, 0, 0, 0, 0, 0, 0, 0, 0, 0, 0, 0, 0, 0, 0, 0, 0, 0, 0, 0, 0, 0, 0, 0, 0, 0, 0, 0], [34, 39, 37, 35, 31, 43, 50, 40, 42, 31, 38, 46, 41, 45, 45, 41, 33, 36, 45, 44, 38, 34, 40, 36, 41, 38, 45, 45, 37, 43]], [[0, 0, 0, 0, 0, 0, 0, 0, 0, 0, 0, 0, 0, 0, 0, 0, 0, 0, 0, 0, 0, 0, 0, 0, 0, 0, 0, 0, 0, 0], [0, 0, 0, 0, 0, 0, 0, 0, 0, 0, 0, 0, 0, 0, 0, 0, 0, 0, 0, 0, 0, 0, 0, 0, 0, 0, 0, 0, 0, 0], [0, 0, 0, 0, 0, 0, 0, 0, 0, 0, 0, 0, 0, 0, 0, 0, 0, 0, 0, 0, 0, 0, 0, 0, 0, 0, 0, 0, 0, 0], [0, 0, 0, 0, 0, 0, 0, 0, 0, 0, 0, 0, 0, 0, 0, 0, 0, 0, 0, 0, 0, 0, 0, 0, 0, 0, 0, 0, 0, 0], [0, 0, 0, 0, 0, 0, 0, 0, 0, 0, 0, 0, 0, 0, 0, 0, 0, 0, 0, 0, 0, 0, 0, 0, 0, 0, 0, 0, 0, 0]]];

q = [[[14, 123], [18, 118], [6, 123], [11, 105], [14, 113], [7, 117], [24, 122], [19, 123], [8, 105], [16, 115], [22, 116], [9, 108], [12, 114], [16, 110], [14, 114], [14, 106], [17, 124], [22, 108], [6, 125], [13, 116], [14, 122], [14, 112], [24, 111], [18, 117], [18, 106], [12, 125], [24, 105], [23, 113], [10, 122], [7, 111]], [[21, 124], [13, 118], [18, 114], [10, 122], [16, 108], [24, 113], [18, 120], [11, 125], [17, 109], [24, 106], [16, 125], [22, 108], [9, 121], [10, 117], [24, 111], [12, 121], [24, 118], [9, 116], [5, 106], [24, 122], [16, 125], [19, 108], [11, 116], [15, 110], [10, 110], [12, 120], [25, 120], [18, 113], [8, 109], [11, 124]], [[13, 123], [22, 105], [20, 108], [24, 115], [19, 125], [20, 111], [17, 105], [6, 117], [23, 113], [10, 124], [6, 106], [16, 113], [24, 116], [6, 110], [5, 113], [12, 106], [16, 108], [7, 124], [11, 119], [8, 123], [21, 115], [9, 117], [17, 112], [13, 112], [23, 120], [15, 121], [20, 109], [9, 114], [14, 108], [14, 117]], [[7, 106], [15, 114], [11, 125], [21, 119], [18, 118], [12, 125], [7, 118], [22, 117], [9, 107], [23, 106], [21, 107], [8, 111], [18, 108], [23, 105], [20, 116], [12, 110], [5, 114], [12, 112], [5, 116], [10, 123], [12, 105], [20, 117], [18, 107], [17, 119], [11, 124], [11, 119], [18, 108], [20, 106], [24, 114], [24, 111]], [[10, 124], [15, 113], [17, 111], [20, 113], [17, 115], [11, 123], [22, 106], [19, 113], [24, 107], [24, 124], [17, 108], [20, 125], [16, 108], [10, 105], [6, 112], [11, 121], [9, 116], [14, 115], [14, 113], [22, 108], [17, 121], [16, 114], [19, 113], [21, 117], [24, 118], [22, 114], [18, 111], [8, 110], [5, 117], [14, 109]]];
Q = [[72, 552], [75, 557], [70, 549], [72, 546], [78, 548]];
